% File represents an instance of a Composite Structure problem to be solved by a CP framework
% Created on 2025-03-26 10:41:19.751
T = 52;
n = 9;
m = 12;
edges = [(2, 1),
(5, 4),
(7, 8),
(3, 2),
(6, 5),
(9, 8),
(4, 1),
(7, 4),
(5, 2),
(5, 8),
(6, 3),
(6, 9)];
counts = [|8, 10, 8, 16,
|8, 12, 8, 20,
|8, 12, 8, 22,
|8, 10, 8, 18,
|8, 12, 8, 22,
|8, 14, 8, 22,
|8, 12, 8, 22,
|8, 12, 8, 18,
|8, 12, 8, 22|];
